12 40 3 10
8 7 6 20 4 15 3 8 17 10 17 4 20 16 2 3 17 20 2 8 11 7 8 8 7 7 11 13 11 19 4 19 4 1 17 11 9 6 5 15 
14.64 3.25 5.84 2.86 13.28 15.55 2.92 13.49 8.38 14.6 0.66 9.33 6.6 4.64 3.77 5.33 6.3 13.27 14.53 9.51 5.36 5.6 1.52 7 5.18 11.31 3.81 10.98 9.51 1.09 8.35 9.58 3.29 7.11 8.32 9.1 14.66 2.3 7.09 7.74 
10.48 5.49 2.72 13.38 7.33 14.34 2.57 4.93 3.29 15.51 7.59 11.55 13.31 12.76 13.02 10.2 11.1 2.75 4.44 13.2 10.5 6.83 4.33 4.56 9.78 9.68 7.92 1.98 1.05 6.34 14.07 0.06 14.13 1.57 3.38 14.08 7.05 12.71 4.81 6.78 
4.23 6.7 0.26 3.64 1.46 10.68 2.01 14.86 14.62 1.76 6.6 6.14 2.77 8.93 6.71 9.05 6.21 12.59 11.53 12.23 0.7 0.93 4.09 7.27 14.51 6.4 15.86 12.25 6.95 4.69 8.19 5.05 15.87 14.87 12.28 9.91 9.25 10.69 9.4 0.38 
8 8 8 8 8 8 8 8 8 8 8 8 8 8 8 8 8 8 8 8 8 8 8 8 8 8 8 8 8 8 8 8 8 8 8 8 8 8 8 8 
0.2 10.14 6.02 3.67 12.28 7.9 5.63 14.58 4.55 8.86 4.58 13.61 10.81 13.16 15.47 0.64 15.46 4.86 10.63 12.83 6.96 13.83 3.77 7.79 2.5 12.77 6.4 0.88 10.41 8.65 15.85 6.98 11.4 13.27 15.37 1.4 6.84 1.94 13.82 14.25 
15.76 0.05 11.45 7.12 4.18 3.77 2.8 7.21 1.63 11.59 14.07 3.66 12.55 15.49 5.67 12.06 12.1 12.98 7.03 11.02 2.07 3.75 14.62 14.96 10.53 4.25 4.85 15.37 10.7 4.63 9.35 12.1 14.2 14.29 15.66 5.39 10.39 4.51 3 7.23 
14.7 5.66 3.23 13.53 3.79 7.22 9.55 1.56 7.5 4.44 2.56 9.39 7.13 3 6.7 3.6 12.26 3.37 8.99 9.97 12.66 7.86 5.01 0.53 1.8 1.35 5.16 13.43 2.17 2.38 15.76 7.74 3.63 2.63 4.26 7.61 12.7 14.57 0.57 13.92 
11.3 5.79 12.09 11.97 10.55 2.49 9.23 2.91 2.64 3.61 3.2 14.59 10.66 7.4 6.32 5.99 12.79 13.85 5.6 0.65 3.62 7.17 6.14 15.92 14.86 9.89 4.68 3.02 7.76 13.19 12.32 7.01 0.74 3.76 10.55 5.57 6.98 4.21 2.48 2.31 
12.04 13.87 4.01 9.11 5.88 10.98 1.22 0.4 4.44 7.29 3.8 11.67 3.58 9.23 5.32 5.51 14.77 10.62 15.7 6.77 12.32 14.75 1.39 9.06 3.47 6.64 9.95 9.66 5.22 5 5.37 13.37 12.09 12.9 9.28 9.63 1.92 13.3 2.99 13.42 
7.2 6.76 1.56 11.76 3.58 9.02 8.14 2.37 14.44 12.44 11.5 12.23 9.82 7 0.63 15.93 9.27 8.37 13.83 6.66 7.66 10.7 3.7 2.97 6.99 9.21 9.72 6.17 15.96 14.48 15.48 0.75 7.84 1.83 12.05 2.31 5.78 6.86 7.07 15.92 
2.29 14.76 12.95 6.16 14.46 12.93 14.89 13.26 1.93 3.34 4.52 2.65 5.93 14.22 8.04 11.37 2.84 9.03 6.16 3.57 1.96 15.3 12.34 10.66 15.83 5.72 7.41 3.44 4.24 8.96 5.57 12.4 15.57 5.9 14.91 5.52 6.26 2.1 2.59 13.24 
14.71 2.06 0.9 6.79 9.86 5.18 10.03 4.94 7.39 12.24 13.64 14.77 9.44 15.24 11.92 13.84 11.97 4.24 15.14 8.44 13.18 8.75 3 0.4 5.16 10.62 8.8 5.15 15.74 11.04 0.73 4.44 6.06 3.21 4.68 1.98 0.13 10.2 11.35 12.11 
1 1 1 1 1 1 1 1 1 1 1 1 1 1 1 1 1 1 1 1 1 1 1 1 1 1 1 1 1 1 1 1 1 1 1 1 1 1 1 1 
1 1 1 1 1 1 1 1 1 1 1 1 1 1 1 1 1 1 1 1 1 1 1 1 1 1 1 1 1 1 1 1 1 1 1 1 1 1 1 1 
1 1 1 1 1 1 1 1 1 1 1 1 1 1 1 1 1 1 1 1 1 1 1 1 1 1 1 1 1 1 1 1 1 1 1 1 1 1 1 1 
1 1 1 1 1 1 1 1 1 1 1 1 1 1 1 1 1 1 1 1 1 1 1 1 1 1 1 1 1 1 1 1 1 1 1 1 1 1 1 1 
1 1 1 1 1 1 1 1 1 1 1 1 1 1 1 1 1 1 1 1 1 1 1 1 1 1 1 1 1 1 1 1 1 1 1 1 1 1 1 1 
1 1 1 1 1 1 1 1 1 1 1 1 1 1 1 1 1 1 1 1 1 1 1 1 1 1 1 1 1 1 1 1 1 1 1 1 1 1 1 1 
1 1 1 1 1 1 1 1 1 1 1 1 1 1 1 1 1 1 1 1 1 1 1 1 1 1 1 1 1 1 1 1 1 1 1 1 1 1 1 1 
1 1 1 1 1 1 1 1 1 1 1 1 1 1 1 1 1 1 1 1 1 1 1 1 1 1 1 1 1 1 1 1 1 1 1 1 1 1 1 1 
1 1 1 1 1 1 1 1 1 1 1 1 1 1 1 1 1 1 1 1 1 1 1 1 1 1 1 1 1 1 1 1 1 1 1 1 1 1 1 1 
1 1 1 1 1 1 1 1 1 1 1 1 1 1 1 1 1 1 1 1 1 1 1 1 1 1 1 1 1 1 1 1 1 1 1 1 1 1 1 1 
1 1 1 1 1 1 1 1 1 1 1 1 1 1 1 1 1 1 1 1 1 1 1 1 1 1 1 1 1 1 1 1 1 1 1 1 1 1 1 1 
1 1 1 1 1 1 1 1 1 1 1 1 1 1 1 1 1 1 1 1 1 1 1 1 1 1 1 1 1 1 1 1 1 1 1 1 1 1 1 1 
0.01 0.01 0.01 0.01 0.01 0.01 0.01 0.01 0.01 0.01 0.01 0.01 0.01 0.01 0.01 0.01 0.01 0.01 0.01 0.01 0.01 0.01 0.01 0.01 0.01 0.01 0.01 0.01 0.01 0.01 0.01 0.01 0.01 0.01 0.01 0.01 0.01 0.01 0.01 0.01 
0.02 0.02 0.02 0.02 0.02 0.02 0.02 0.02 0.02 0.02 0.02 0.02 0.02 0.02 0.02 0.02 0.02 0.02 0.02 0.02 0.02 0.02 0.02 0.02 0.02 0.02 0.02 0.02 0.02 0.02 0.02 0.02 0.02 0.02 0.02 0.02 0.02 0.02 0.02 0.02 
0.03 0.03 0.03 0.03 0.03 0.03 0.03 0.03 0.03 0.03 0.03 0.03 0.03 0.03 0.03 0.03 0.03 0.03 0.03 0.03 0.03 0.03 0.03 0.03 0.03 0.03 0.03 0.03 0.03 0.03 0.03 0.03 0.03 0.03 0.03 0.03 0.03 0.03 0.03 0.03 
0.04 0.04 0.04 0.04 0.04 0.04 0.04 0.04 0.04 0.04 0.04 0.04 0.04 0.04 0.04 0.04 0.04 0.04 0.04 0.04 0.04 0.04 0.04 0.04 0.04 0.04 0.04 0.04 0.04 0.04 0.04 0.04 0.04 0.04 0.04 0.04 0.04 0.04 0.04 0.04 
0.125 0.125 0.125 0.125 0.125 0.125 0.125 0.125 0.125 0.125 0.125 0.125 0.125 0.125 0.125 0.125 0.125 0.125 0.125 0.125 0.125 0.125 0.125 0.125 0.125 0.125 0.125 0.125 0.125 0.125 0.125 0.125 0.125 0.125 0.125 0.125 0.125 0.125 0.125 0.125 
0.25 0.25 0.25 0.25 0.25 0.25 0.25 0.25 0.25 0.25 0.25 0.25 0.25 0.25 0.25 0.25 0.25 0.25 0.25 0.25 0.25 0.25 0.25 0.25 0.25 0.25 0.25 0.25 0.25 0.25 0.25 0.25 0.25 0.25 0.25 0.25 0.25 0.25 0.25 0.25 
0.375 0.375 0.375 0.375 0.375 0.375 0.375 0.375 0.375 0.375 0.375 0.375 0.375 0.375 0.375 0.375 0.375 0.375 0.375 0.375 0.375 0.375 0.375 0.375 0.375 0.375 0.375 0.375 0.375 0.375 0.375 0.375 0.375 0.375 0.375 0.375 0.375 0.375 0.375 0.375 
0.5 0.5 0.5 0.5 0.5 0.5 0.5 0.5 0.5 0.5 0.5 0.5 0.5 0.5 0.5 0.5 0.5 0.5 0.5 0.5 0.5 0.5 0.5 0.5 0.5 0.5 0.5 0.5 0.5 0.5 0.5 0.5 0.5 0.5 0.5 0.5 0.5 0.5 0.5 0.5 
0.625 0.625 0.625 0.625 0.625 0.625 0.625 0.625 0.625 0.625 0.625 0.625 0.625 0.625 0.625 0.625 0.625 0.625 0.625 0.625 0.625 0.625 0.625 0.625 0.625 0.625 0.625 0.625 0.625 0.625 0.625 0.625 0.625 0.625 0.625 0.625 0.625 0.625 0.625 0.625 
0.75 0.75 0.75 0.75 0.75 0.75 0.75 0.75 0.75 0.75 0.75 0.75 0.75 0.75 0.75 0.75 0.75 0.75 0.75 0.75 0.75 0.75 0.75 0.75 0.75 0.75 0.75 0.75 0.75 0.75 0.75 0.75 0.75 0.75 0.75 0.75 0.75 0.75 0.75 0.75 
0.875 0.875 0.875 0.875 0.875 0.875 0.875 0.875 0.875 0.875 0.875 0.875 0.875 0.875 0.875 0.875 0.875 0.875 0.875 0.875 0.875 0.875 0.875 0.875 0.875 0.875 0.875 0.875 0.875 0.875 0.875 0.875 0.875 0.875 0.875 0.875 0.875 0.875 0.875 0.875 
1 1 1 1 1 1 1 1 1 1 1 1 1 1 1 1 1 1 1 1 1 1 1 1 1 1 1 1 1 1 1 1 1 1 1 1 1 1 1 1 
